20
99
3
25
51
118
65
29
70
36
25
151
1
22
3
102
65
117
103
156
81
63
35
138
78
56
63
175
3
43
93
24
144
24
89
1
123
34
82
90
161
26
161
151
134
164
44
112
143
157
101
119
141
168
130
40
29
125
62
97
16
53
61
7
45
83
158
58
6
64
114
47
127
89
150
135
153
181
96
164
51
174
166
111
30
43
140
58
84
110
146
82
169
159
95
67
65
88
126
21
